Name:		mgval_0.45_3B
Optimal value:	91
#Vehicles:	3
Capacity:	50
Depot Node:	1
#Nodes:		24
#Edges:		16
#Arcs:		29
#Required N:	16
#Required E:	8
#Required A:	15

ReN.	DEMAND	S. COST
N3	4	4
N5	13	13
N6	2	2
N7	9	9
N8	3	3
N10	4	4
N11	3	3
N12	1	1
N13	5	5
N15	4	4
N17	5	5
N18	3	3
N19	2	2
N20	2	2
N21	2	2
N23	5	5

ReE.	FROM N.	TO N.	T. COST	DEMAND	S. COST
E9	2	4	1	3	3
E10	1	2	2	4	4
E11	19	22	3	7	7
E12	9	10	2	2	2
E13	16	17	4	4	4
E14	20	23	1	4	4
E15	12	16	1	1	1
E16	10	11	3	5	5

EDGE	FROM N.	TO N.	T. COST
NrE1	5	10	2
NrE2	19	20	1
NrE3	15	21	1
NrE4	10	20	2
NrE5	5	6	3
NrE6	5	11	4
NrE7	7	8	1
NrE8	23	24	1

ReA.	FROM N.	TO N.	T. COST	DEMAND	S. COST
A15	15	11	1	2	2
A16	19	9	1	2	2
A17	14	18	3	3	3
A18	6	12	1	3	3
A19	21	24	1	1	1
A20	5	4	2	6	6
A21	3	1	1	2	2
A22	24	21	1	2	2
A23	18	17	1	3	3
A24	14	8	3	4	4
A25	22	23	3	4	4
A26	11	15	1	2	2
A27	9	19	1	1	1
A28	4	3	2	2	2
A29	15	16	1	3	3

ARC	FROM N.	TO N.	T. COST
NrA1	20	21	2
NrA2	3	4	2
NrA3	13	12	1
NrA4	21	20	2
NrA5	17	13	3
NrA6	1	3	1
NrA7	11	12	1
NrA8	3	9	1
NrA9	6	7	3
NrA10	7	6	3
NrA11	18	14	3
NrA12	13	14	2
NrA13	8	14	3
NrA14	12	13	1
